(declare-const X String)
; /filename=[^\n]*\x2epfb/i
(assert (str.in_re X (re.++ (str.to_re "/filename=") (re.* (re.comp (str.to_re "\u{a}"))) (str.to_re ".pfb/i\u{a}"))))
; User-Agent\x3A\s+Robert
(assert (str.in_re X (re.++ (str.to_re "User-Agent:") (re.+ (re.union (str.to_re " ") (str.to_re "\u{9}") (str.to_re "\u{a}") (str.to_re "\u{c}") (str.to_re "\u{d}"))) (str.to_re "Robert\u{a}"))))
; requested\s+Reports\s+HostHost\x3aHost\x3AHost\x3AMyWebSearchSearchAssistant
(assert (not (str.in_re X (re.++ (str.to_re "requested") (re.+ (re.union (str.to_re " ") (str.to_re "\u{9}") (str.to_re "\u{a}") (str.to_re "\u{c}") (str.to_re "\u{d}"))) (str.to_re "Reports") (re.+ (re.union (str.to_re " ") (str.to_re "\u{9}") (str.to_re "\u{a}") (str.to_re "\u{c}") (str.to_re "\u{d}"))) (str.to_re "HostHost:Host:Host:MyWebSearchSearchAssistant\u{a}")))))
; this\s+MyBrowser\d+Redirector\x22ServerHost\x3AX-Mailer\x3A
(assert (not (str.in_re X (re.++ (str.to_re "this") (re.+ (re.union (str.to_re " ") (str.to_re "\u{9}") (str.to_re "\u{a}") (str.to_re "\u{c}") (str.to_re "\u{d}"))) (str.to_re "MyBrowser") (re.+ (re.range "0" "9")) (str.to_re "Redirector\u{22}ServerHost:X-Mailer:\u{13}\u{a}")))))
; /^\/[A-Za-z0-9]+\.php\?[A-Za-z0-9\x2B\x2F\x3D]{300}/Ui
(assert (str.in_re X (re.++ (str.to_re "//") (re.+ (re.union (re.range "A" "Z") (re.range "a" "z") (re.range "0" "9"))) (str.to_re ".php?") ((_ re.loop 300 300) (re.union (re.range "A" "Z") (re.range "a" "z") (re.range "0" "9") (str.to_re "+") (str.to_re "/") (str.to_re "="))) (str.to_re "/Ui\u{a}"))))
(check-sat)
